
Gurobi 10.0.2 (linux64) logging started Fri 19 Jul 2024 12:16:58 AM -05

Set parameter LogFile to value "gurobi.log"
Gurobi Optimizer version 10.0.2 build v10.0.2rc0 (linux64)

CPU model: Intel(R) Core(TM) i5-1035G1 CPU @ 1.00GHz, instruction set [SSE2|AVX|AVX2|AVX512]
Thread count: 4 physical cores, 8 logical processors, using up to 8 threads

Academic license 2446675 - for non-commercial use only - registered to mi___@epn.edu.ec
Optimize a model with 8795 rows, 3277 columns and 22983 nonzeros
Model fingerprint: 0xc712a968
Variable types: 0 continuous, 3277 integer (0 binary)
Coefficient statistics:
  Matrix range     [5e-01, 8e+01]
  Objective range  [1e+00, 1e+00]
  Bounds range     [1e+00, 3e+03]
  RHS range        [1e+00, 3e+03]
Found heuristic solution: objective 92007.000000
Presolve removed 8707 rows and 3129 columns
Presolve time: 0.01s
Presolved: 88 rows, 148 columns, 340 nonzeros
Found heuristic solution: objective 92129.000000
Variable types: 0 continuous, 148 integer (38 binary)
Found heuristic solution: objective 92135.000000

Root relaxation: cutoff, 0 iterations, 0.00 seconds (0.00 work units)

Explored 1 nodes (0 simplex iterations) in 0.01 seconds (0.01 work units)
Thread count was 8 (of 8 available processors)

Solution count 3: 92135 92129 92007 

Optimal solution found (tolerance 1.00e-04)
Best objective 9.213500000000e+04, best bound 9.213500000000e+04, gap 0.0000%
